certificates/rado_a15_c36_N82.cnf
c Rad2 upper bound instance: x1 + 15*x2 - x3 = 36, interval [1,82]
p cnf 82 702
1 3 10 0
-1 -3 -10 0
1 4 25 0
-1 -4 -25 0
1 5 40 0
-1 -5 -40 0
1 6 55 0
-1 -6 -55 0
1 7 70 0
-1 -7 -70 0
2 3 11 0
-2 -3 -11 0
2 4 26 0
-2 -4 -26 0
2 5 41 0
-2 -5 -41 0
2 6 56 0
-2 -6 -56 0
2 7 71 0
-2 -7 -71 0
3 12 0
-3 -12 0
3 4 27 0
-3 -4 -27 0
3 5 42 0
-3 -5 -42 0
3 6 57 0
-3 -6 -57 0
3 7 72 0
-3 -7 -72 0
3 4 13 0
-3 -4 -13 0
4 28 0
-4 -28 0
4 5 43 0
-4 -5 -43 0
4 6 58 0
-4 -6 -58 0
4 7 73 0
-4 -7 -73 0
3 5 14 0
-3 -5 -14 0
4 5 29 0
-4 -5 -29 0
5 44 0
-5 -44 0
5 6 59 0
-5 -6 -59 0
5 7 74 0
-5 -7 -74 0
3 6 15 0
-3 -6 -15 0
4 6 30 0
-4 -6 -30 0
5 6 45 0
-5 -6 -45 0
6 60 0
-6 -60 0
6 7 75 0
-6 -7 -75 0
1 2 7 0
-1 -2 -7 0
3 7 16 0
-3 -7 -16 0
4 7 31 0
-4 -7 -31 0
5 7 46 0
-5 -7 -46 0
6 7 61 0
-6 -7 -61 0
7 76 0
-7 -76 0
2 8 0
-2 -8 0
3 8 17 0
-3 -8 -17 0
4 8 32 0
-4 -8 -32 0
5 8 47 0
-5 -8 -47 0
6 8 62 0
-6 -8 -62 0
7 8 77 0
-7 -8 -77 0
2 3 9 0
-2 -3 -9 0
3 9 18 0
-3 -9 -18 0
4 9 33 0
-4 -9 -33 0
5 9 48 0
-5 -9 -48 0
6 9 63 0
-6 -9 -63 0
7 9 78 0
-7 -9 -78 0
2 4 10 0
-2 -4 -10 0
3 10 19 0
-3 -10 -19 0
4 10 34 0
-4 -10 -34 0
5 10 49 0
-5 -10 -49 0
6 10 64 0
-6 -10 -64 0
7 10 79 0
-7 -10 -79 0
2 5 11 0
-2 -5 -11 0
3 11 20 0
-3 -11 -20 0
4 11 35 0
-4 -11 -35 0
5 11 50 0
-5 -11 -50 0
6 11 65 0
-6 -11 -65 0
7 11 80 0
-7 -11 -80 0
2 6 12 0
-2 -6 -12 0
3 12 21 0
-3 -12 -21 0
4 12 36 0
-4 -12 -36 0
5 12 51 0
-5 -12 -51 0
6 12 66 0
-6 -12 -66 0
7 12 81 0
-7 -12 -81 0
2 7 13 0
-2 -7 -13 0
3 13 22 0
-3 -13 -22 0
4 13 37 0
-4 -13 -37 0
5 13 52 0
-5 -13 -52 0
6 13 67 0
-6 -13 -67 0
7 13 82 0
-7 -13 -82 0
2 8 14 0
-2 -8 -14 0
3 14 23 0
-3 -14 -23 0
4 14 38 0
-4 -14 -38 0
5 14 53 0
-5 -14 -53 0
6 14 68 0
-6 -14 -68 0
2 9 15 0
-2 -9 -15 0
3 15 24 0
-3 -15 -24 0
4 15 39 0
-4 -15 -39 0
5 15 54 0
-5 -15 -54 0
6 15 69 0
-6 -15 -69 0
2 10 16 0
-2 -10 -16 0
3 16 25 0
-3 -16 -25 0
4 16 40 0
-4 -16 -40 0
5 16 55 0
-5 -16 -55 0
6 16 70 0
-6 -16 -70 0
2 11 17 0
-2 -11 -17 0
3 17 26 0
-3 -17 -26 0
4 17 41 0
-4 -17 -41 0
5 17 56 0
-5 -17 -56 0
6 17 71 0
-6 -17 -71 0
2 12 18 0
-2 -12 -18 0
3 18 27 0
-3 -18 -27 0
4 18 42 0
-4 -18 -42 0
5 18 57 0
-5 -18 -57 0
6 18 72 0
-6 -18 -72 0
2 13 19 0
-2 -13 -19 0
3 19 28 0
-3 -19 -28 0
4 19 43 0
-4 -19 -43 0
5 19 58 0
-5 -19 -58 0
6 19 73 0
-6 -19 -73 0
2 14 20 0
-2 -14 -20 0
3 20 29 0
-3 -20 -29 0
4 20 44 0
-4 -20 -44 0
5 20 59 0
-5 -20 -59 0
6 20 74 0
-6 -20 -74 0
2 15 21 0
-2 -15 -21 0
3 21 30 0
-3 -21 -30 0
4 21 45 0
-4 -21 -45 0
5 21 60 0
-5 -21 -60 0
6 21 75 0
-6 -21 -75 0
1 22 0
-1 -22 0
2 16 22 0
-2 -16 -22 0
3 22 31 0
-3 -22 -31 0
4 22 46 0
-4 -22 -46 0
5 22 61 0
-5 -22 -61 0
6 22 76 0
-6 -22 -76 0
1 2 23 0
-1 -2 -23 0
2 17 23 0
-2 -17 -23 0
3 23 32 0
-3 -23 -32 0
4 23 47 0
-4 -23 -47 0
5 23 62 0
-5 -23 -62 0
6 23 77 0
-6 -23 -77 0
1 3 24 0
-1 -3 -24 0
2 18 24 0
-2 -18 -24 0
3 24 33 0
-3 -24 -33 0
4 24 48 0
-4 -24 -48 0
5 24 63 0
-5 -24 -63 0
6 24 78 0
-6 -24 -78 0
2 19 25 0
-2 -19 -25 0
3 25 34 0
-3 -25 -34 0
4 25 49 0
-4 -25 -49 0
5 25 64 0
-5 -25 -64 0
6 25 79 0
-6 -25 -79 0
1 5 26 0
-1 -5 -26 0
2 20 26 0
-2 -20 -26 0
3 26 35 0
-3 -26 -35 0
4 26 50 0
-4 -26 -50 0
5 26 65 0
-5 -26 -65 0
6 26 80 0
-6 -26 -80 0
1 6 27 0
-1 -6 -27 0
2 21 27 0
-2 -21 -27 0
3 27 36 0
-3 -27 -36 0
4 27 51 0
-4 -27 -51 0
5 27 66 0
-5 -27 -66 0
6 27 81 0
-6 -27 -81 0
1 7 28 0
-1 -7 -28 0
2 22 28 0
-2 -22 -28 0
3 28 37 0
-3 -28 -37 0
4 28 52 0
-4 -28 -52 0
5 28 67 0
-5 -28 -67 0
6 28 82 0
-6 -28 -82 0
1 8 29 0
-1 -8 -29 0
2 23 29 0
-2 -23 -29 0
3 29 38 0
-3 -29 -38 0
4 29 53 0
-4 -29 -53 0
5 29 68 0
-5 -29 -68 0
1 9 30 0
-1 -9 -30 0
2 24 30 0
-2 -24 -30 0
3 30 39 0
-3 -30 -39 0
4 30 54 0
-4 -30 -54 0
5 30 69 0
-5 -30 -69 0
1 10 31 0
-1 -10 -31 0
2 25 31 0
-2 -25 -31 0
3 31 40 0
-3 -31 -40 0
4 31 55 0
-4 -31 -55 0
5 31 70 0
-5 -31 -70 0
1 11 32 0
-1 -11 -32 0
2 26 32 0
-2 -26 -32 0
3 32 41 0
-3 -32 -41 0
4 32 56 0
-4 -32 -56 0
5 32 71 0
-5 -32 -71 0
1 12 33 0
-1 -12 -33 0
2 27 33 0
-2 -27 -33 0
3 33 42 0
-3 -33 -42 0
4 33 57 0
-4 -33 -57 0
5 33 72 0
-5 -33 -72 0
1 13 34 0
-1 -13 -34 0
2 28 34 0
-2 -28 -34 0
3 34 43 0
-3 -34 -43 0
4 34 58 0
-4 -34 -58 0
5 34 73 0
-5 -34 -73 0
1 14 35 0
-1 -14 -35 0
2 29 35 0
-2 -29 -35 0
3 35 44 0
-3 -35 -44 0
4 35 59 0
-4 -35 -59 0
5 35 74 0
-5 -35 -74 0
1 15 36 0
-1 -15 -36 0
2 30 36 0
-2 -30 -36 0
3 36 45 0
-3 -36 -45 0
4 36 60 0
-4 -36 -60 0
5 36 75 0
-5 -36 -75 0
1 16 37 0
-1 -16 -37 0
2 31 37 0
-2 -31 -37 0
3 37 46 0
-3 -37 -46 0
4 37 61 0
-4 -37 -61 0
5 37 76 0
-5 -37 -76 0
1 17 38 0
-1 -17 -38 0
2 32 38 0
-2 -32 -38 0
3 38 47 0
-3 -38 -47 0
4 38 62 0
-4 -38 -62 0
5 38 77 0
-5 -38 -77 0
1 18 39 0
-1 -18 -39 0
2 33 39 0
-2 -33 -39 0
3 39 48 0
-3 -39 -48 0
4 39 63 0
-4 -39 -63 0
5 39 78 0
-5 -39 -78 0
1 19 40 0
-1 -19 -40 0
2 34 40 0
-2 -34 -40 0
3 40 49 0
-3 -40 -49 0
4 40 64 0
-4 -40 -64 0
5 40 79 0
-5 -40 -79 0
1 20 41 0
-1 -20 -41 0
2 35 41 0
-2 -35 -41 0
3 41 50 0
-3 -41 -50 0
4 41 65 0
-4 -41 -65 0
5 41 80 0
-5 -41 -80 0
1 21 42 0
-1 -21 -42 0
2 36 42 0
-2 -36 -42 0
3 42 51 0
-3 -42 -51 0
4 42 66 0
-4 -42 -66 0
5 42 81 0
-5 -42 -81 0
1 22 43 0
-1 -22 -43 0
2 37 43 0
-2 -37 -43 0
3 43 52 0
-3 -43 -52 0
4 43 67 0
-4 -43 -67 0
5 43 82 0
-5 -43 -82 0
1 23 44 0
-1 -23 -44 0
2 38 44 0
-2 -38 -44 0
3 44 53 0
-3 -44 -53 0
4 44 68 0
-4 -44 -68 0
1 24 45 0
-1 -24 -45 0
2 39 45 0
-2 -39 -45 0
3 45 54 0
-3 -45 -54 0
4 45 69 0
-4 -45 -69 0
1 25 46 0
-1 -25 -46 0
2 40 46 0
-2 -40 -46 0
3 46 55 0
-3 -46 -55 0
4 46 70 0
-4 -46 -70 0
1 26 47 0
-1 -26 -47 0
2 41 47 0
-2 -41 -47 0
3 47 56 0
-3 -47 -56 0
4 47 71 0
-4 -47 -71 0
1 27 48 0
-1 -27 -48 0
2 42 48 0
-2 -42 -48 0
3 48 57 0
-3 -48 -57 0
4 48 72 0
-4 -48 -72 0
1 28 49 0
-1 -28 -49 0
2 43 49 0
-2 -43 -49 0
3 49 58 0
-3 -49 -58 0
4 49 73 0
-4 -49 -73 0
1 29 50 0
-1 -29 -50 0
2 44 50 0
-2 -44 -50 0
3 50 59 0
-3 -50 -59 0
4 50 74 0
-4 -50 -74 0
1 30 51 0
-1 -30 -51 0
2 45 51 0
-2 -45 -51 0
3 51 60 0
-3 -51 -60 0
4 51 75 0
-4 -51 -75 0
1 31 52 0
-1 -31 -52 0
2 46 52 0
-2 -46 -52 0
3 52 61 0
-3 -52 -61 0
4 52 76 0
-4 -52 -76 0
1 32 53 0
-1 -32 -53 0
2 47 53 0
-2 -47 -53 0
3 53 62 0
-3 -53 -62 0
4 53 77 0
-4 -53 -77 0
1 33 54 0
-1 -33 -54 0
2 48 54 0
-2 -48 -54 0
3 54 63 0
-3 -54 -63 0
4 54 78 0
-4 -54 -78 0
1 34 55 0
-1 -34 -55 0
2 49 55 0
-2 -49 -55 0
3 55 64 0
-3 -55 -64 0
4 55 79 0
-4 -55 -79 0
1 35 56 0
-1 -35 -56 0
2 50 56 0
-2 -50 -56 0
3 56 65 0
-3 -56 -65 0
4 56 80 0
-4 -56 -80 0
1 36 57 0
-1 -36 -57 0
2 51 57 0
-2 -51 -57 0
3 57 66 0
-3 -57 -66 0
4 57 81 0
-4 -57 -81 0
1 37 58 0
-1 -37 -58 0
2 52 58 0
-2 -52 -58 0
3 58 67 0
-3 -58 -67 0
4 58 82 0
-4 -58 -82 0
1 38 59 0
-1 -38 -59 0
2 53 59 0
-2 -53 -59 0
3 59 68 0
-3 -59 -68 0
1 39 60 0
-1 -39 -60 0
2 54 60 0
-2 -54 -60 0
3 60 69 0
-3 -60 -69 0
1 40 61 0
-1 -40 -61 0
2 55 61 0
-2 -55 -61 0
3 61 70 0
-3 -61 -70 0
1 41 62 0
-1 -41 -62 0
2 56 62 0
-2 -56 -62 0
3 62 71 0
-3 -62 -71 0
1 42 63 0
-1 -42 -63 0
2 57 63 0
-2 -57 -63 0
3 63 72 0
-3 -63 -72 0
1 43 64 0
-1 -43 -64 0
2 58 64 0
-2 -58 -64 0
3 64 73 0
-3 -64 -73 0
1 44 65 0
-1 -44 -65 0
2 59 65 0
-2 -59 -65 0
3 65 74 0
-3 -65 -74 0
1 45 66 0
-1 -45 -66 0
2 60 66 0
-2 -60 -66 0
3 66 75 0
-3 -66 -75 0
1 46 67 0
-1 -46 -67 0
2 61 67 0
-2 -61 -67 0
3 67 76 0
-3 -67 -76 0
1 47 68 0
-1 -47 -68 0
2 62 68 0
-2 -62 -68 0
3 68 77 0
-3 -68 -77 0
1 48 69 0
-1 -48 -69 0
2 63 69 0
-2 -63 -69 0
3 69 78 0
-3 -69 -78 0
1 49 70 0
-1 -49 -70 0
2 64 70 0
-2 -64 -70 0
3 70 79 0
-3 -70 -79 0
1 50 71 0
-1 -50 -71 0
2 65 71 0
-2 -65 -71 0
3 71 80 0
-3 -71 -80 0
1 51 72 0
-1 -51 -72 0
2 66 72 0
-2 -66 -72 0
3 72 81 0
-3 -72 -81 0
1 52 73 0
-1 -52 -73 0
2 67 73 0
-2 -67 -73 0
3 73 82 0
-3 -73 -82 0
1 53 74 0
-1 -53 -74 0
2 68 74 0
-2 -68 -74 0
1 54 75 0
-1 -54 -75 0
2 69 75 0
-2 -69 -75 0
1 55 76 0
-1 -55 -76 0
2 70 76 0
-2 -70 -76 0
1 56 77 0
-1 -56 -77 0
2 71 77 0
-2 -71 -77 0
1 57 78 0
-1 -57 -78 0
2 72 78 0
-2 -72 -78 0
1 58 79 0
-1 -58 -79 0
2 73 79 0
-2 -73 -79 0
1 59 80 0
-1 -59 -80 0
2 74 80 0
-2 -74 -80 0
1 60 81 0
-1 -60 -81 0
2 75 81 0
-2 -75 -81 0
1 61 82 0
-1 -61 -82 0
2 76 82 0
-2 -76 -82 0
