certificates/rado_a15_c36_N82.drat
-76 -80 -82 0
-2 70 76 0
70 76 0
d -2 70 76 0
d 70 2 76 0
76 -81 -82 0
-76 -82 0
d -76 -80 -82 0
3 -82 0
-82 0
-3 1 0
70 1 0
d 70 7 1 0
-76 1 0
1 0
-22 0
-70 0
76 0
-7 0
-55 0
13 0
-34 0
2 0
-8 0
-23 0
-19 0
77 0
-56 0
-71 0
3 0
-12 0
-10 0
-24 0
-67 0
-4 0
-11 0
-9 0
-68 0
81 0
79 0
0
